p edge 34 170
e 1 5
e 1 31
e 1 32
e 1 32
e 1 33
e 2 5
e 2 5
e 2 12
e 2 16
e 2 28
e 3 9
e 3 9
e 3 11
e 3 14
e 3 21
e 4 2
e 4 5
e 4 17
e 4 19
e 4 34
e 5 12
e 5 15
e 5 22
e 5 23
e 5 32
e 6 2
e 6 8
e 6 21
e 6 30
e 6 33
e 7 6
e 7 12
e 7 17
e 7 21
e 7 24
e 8 21
e 8 27
e 8 28
e 8 29
e 8 32
e 9 12
e 9 19
e 9 23
e 9 31
e 9 33
e 10 8
e 10 9
e 10 16
e 10 18
e 10 34
e 11 3
e 11 17
e 11 22
e 11 29
e 11 34
e 12 4
e 12 5
e 12 8
e 12 15
e 12 26
e 13 12
e 13 15
e 13 15
e 13 16
e 13 34
e 14 6
e 14 15
e 14 24
e 14 28
e 14 32
e 15 7
e 15 17
e 15 18
e 15 26
e 15 28
e 16 12
e 16 14
e 16 19
e 16 20
e 16 20
e 17 14
e 17 23
e 17 23
e 17 25
e 17 27
e 18 3
e 18 14
e 18 16
e 18 21
e 18 22
e 19 3
e 19 16
e 19 28
e 19 29
e 19 31
e 20 1
e 20 8
e 20 15
e 20 18
e 20 30
e 21 1
e 21 7
e 21 16
e 21 26
e 21 32
e 22 8
e 22 17
e 22 21
e 22 23
e 22 27
e 23 5
e 23 15
e 23 26
e 23 27
e 23 27
e 24 2
e 24 7
e 24 16
e 24 27
e 24 31
e 25 6
e 25 12
e 25 17
e 25 23
e 25 31
e 26 6
e 26 20
e 26 22
e 26 30
e 26 33
e 27 11
e 27 25
e 27 26
e 27 26
e 27 29
e 28 10
e 28 11
e 28 13
e 28 15
e 28 27
e 29 4
e 29 7
e 29 13
e 29 13
e 29 32
e 30 5
e 30 10
e 30 13
e 30 14
e 30 26
e 31 14
e 31 20
e 31 22
e 31 26
e 31 27
e 32 7
e 32 10
e 32 27
e 32 31
e 32 33
e 33 2
e 33 23
e 33 24
e 33 29
e 33 34
e 34 1
e 34 18
e 34 18
e 34 31
e 34 32
